NAME: Li-n560-k100
COMMENT: Reformatted Li's 500.vrp to normal format
TYPE: CVRP
DIMENSION: 561
EDGE_WEIGHT_TYPE: EUC_2D
CAPACITY: 1200
NODE_COORD_SECTION
1	0.0000	0.0000
2	30.0000	0.0000
3	29.6307	4.6930
4	28.5317	9.2705
5	26.7302	13.6197
6	24.2705	17.6336
7	21.2132	21.2132
8	17.6336	24.2705
9	13.6197	26.7302
10	9.2705	28.5317
11	4.6930	29.6307
12	0.0000	30.0000
13	-4.6930	29.6307
14	-9.2705	28.5317
15	-13.6197	26.7302
16	-17.6336	24.2705
17	-21.2132	21.2132
18	-24.2705	17.6336
19	-26.7302	13.6197
20	-28.5317	9.2705
21	-29.6307	4.6930
22	-30.0000	0.0000
23	-29.6307	-4.6930
24	-28.5317	-9.2705
25	-26.7302	-13.6197
26	-24.2705	-17.6336
27	-21.2132	-21.2132
28	-17.6336	-24.2705
29	-13.6197	-26.7302
30	-9.2705	-28.5317
31	-4.6930	-29.6307
32	-0.0000	-30.0000
33	4.6930	-29.6307
34	9.2705	-28.5317
35	13.6197	-26.7302
36	17.6336	-24.2705
37	21.2132	-21.2132
38	24.2705	-17.6336
39	26.7302	-13.6197
40	28.5317	-9.2705
41	29.6307	-4.6930
42	60.0000	0.0000
43	59.2613	9.3861
44	57.0634	18.5410
45	53.4604	27.2394
46	48.5410	35.2671
47	42.4264	42.4264
48	35.2671	48.5410
49	27.2394	53.4604
50	18.5410	57.0634
51	9.3861	59.2613
52	0.0000	60.0000
53	-9.3861	59.2613
54	-18.5410	57.0634
55	-27.2394	53.4604
56	-35.2671	48.5410
57	-42.4264	42.4264
58	-48.5410	35.2671
59	-53.4604	27.2394
60	-57.0634	18.5410
61	-59.2613	9.3861
62	-60.0000	0.0000
63	-59.2613	-9.3861
64	-57.0634	-18.5410
65	-53.4604	-27.2394
66	-48.5410	-35.2671
67	-42.4264	-42.4264
68	-35.2671	-48.5410
69	-27.2394	-53.4604
70	-18.5410	-57.0634
71	-9.3861	-59.2613
72	-0.0000	-60.0000
73	9.3861	-59.2613
74	18.5410	-57.0634
75	27.2394	-53.4604
76	35.2671	-48.5410
77	42.4264	-42.4264
78	48.5410	-35.2671
79	53.4604	-27.2394
80	57.0634	-18.5410
81	59.2613	-9.3861
82	90.0000	0.0000
83	88.8920	14.0791
84	85.5951	27.8115
85	80.1906	40.8591
86	72.8115	52.9007
87	63.6396	63.6396
88	52.9007	72.8115
89	40.8591	80.1906
90	27.8115	85.5951
91	14.0791	88.8920
92	0.0000	90.0000
93	-14.0791	88.8920
94	-27.8115	85.5951
95	-40.8591	80.1906
96	-52.9007	72.8115
97	-63.6396	63.6396
98	-72.8115	52.9007
99	-80.1906	40.8591
100	-85.5951	27.8115
101	-88.8920	14.0791
102	-90.0000	0.0000
103	-88.8920	-14.0791
104	-85.5951	-27.8115
105	-80.1906	-40.8591
106	-72.8115	-52.9007
107	-63.6396	-63.6396
108	-52.9007	-72.8115
109	-40.8591	-80.1906
110	-27.8115	-85.5951
111	-14.0791	-88.8920
112	-0.0000	-90.0000
113	14.0791	-88.8920
114	27.8115	-85.5951
115	40.8591	-80.1906
116	52.9007	-72.8115
117	63.6396	-63.6396
118	72.8115	-52.9007
119	80.1906	-40.8591
120	85.5951	-27.8115
121	88.8920	-14.0791
122	120.0000	0.0000
123	118.5226	18.7721
124	114.1268	37.0820
125	106.9208	54.4789
126	97.0820	70.5342
127	84.8528	84.8528
128	70.5342	97.0820
129	54.4789	106.9208
130	37.0820	114.1268
131	18.7721	118.5226
132	0.0000	120.0000
133	-18.7721	118.5226
134	-37.0820	114.1268
135	-54.4789	106.9208
136	-70.5342	97.0820
137	-84.8528	84.8528
138	-97.0820	70.5342
139	-106.9208	54.4789
140	-114.1268	37.0820
141	-118.5226	18.7721
142	-120.0000	0.0000
143	-118.5226	-18.7721
144	-114.1268	-37.0820
145	-106.9208	-54.4789
146	-97.0820	-70.5342
147	-84.8528	-84.8528
148	-70.5342	-97.0820
149	-54.4789	-106.9208
150	-37.0820	-114.1268
151	-18.7721	-118.5226
152	-0.0000	-120.0000
153	18.7721	-118.5226
154	37.0820	-114.1268
155	54.4789	-106.9208
156	70.5342	-97.0820
157	84.8528	-84.8528
158	97.0820	-70.5342
159	106.9208	-54.4789
160	114.1268	-37.0820
161	118.5226	-18.7721
162	150.0000	0.0000
163	148.1533	23.4652
164	142.6585	46.3525
165	133.6510	68.0986
166	121.3525	88.1678
167	106.0660	106.0660
168	88.1678	121.3525
169	68.0986	133.6510
170	46.3525	142.6585
171	23.4652	148.1533
172	0.0000	150.0000
173	-23.4652	148.1533
174	-46.3525	142.6585
175	-68.0986	133.6510
176	-88.1678	121.3525
177	-106.0660	106.0660
178	-121.3525	88.1678
179	-133.6510	68.0986
180	-142.6585	46.3525
181	-148.1533	23.4652
182	-150.0000	0.0000
183	-148.1533	-23.4652
184	-142.6585	-46.3525
185	-133.6510	-68.0986
186	-121.3525	-88.1678
187	-106.0660	-106.0660
188	-88.1678	-121.3525
189	-68.0986	-133.6510
190	-46.3525	-142.6585
191	-23.4652	-148.1533
192	-0.0000	-150.0000
193	23.4652	-148.1533
194	46.3525	-142.6585
195	68.0986	-133.6510
196	88.1678	-121.3525
197	106.0660	-106.0660
198	121.3525	-88.1678
199	133.6510	-68.0986
200	142.6585	-46.3525
201	148.1533	-23.4652
202	180.0000	0.0000
203	177.7839	28.1582
204	171.1902	55.6231
205	160.3812	81.7183
206	145.6231	105.8013
207	127.2792	127.2792
208	105.8013	145.6231
209	81.7183	160.3812
210	55.6231	171.1902
211	28.1582	177.7839
212	0.0000	180.0000
213	-28.1582	177.7839
214	-55.6231	171.1902
215	-81.7183	160.3812
216	-105.8013	145.6231
217	-127.2792	127.2792
218	-145.6231	105.8013
219	-160.3812	81.7183
220	-171.1902	55.6231
221	-177.7839	28.1582
222	-180.0000	0.0000
223	-177.7839	-28.1582
224	-171.1902	-55.6231
225	-160.3812	-81.7183
226	-145.6231	-105.8013
227	-127.2792	-127.2792
228	-105.8013	-145.6231
229	-81.7183	-160.3812
230	-55.6231	-171.1902
231	-28.1582	-177.7839
232	-0.0000	-180.0000
233	28.1582	-177.7839
234	55.6231	-171.1902
235	81.7183	-160.3812
236	105.8013	-145.6231
237	127.2792	-127.2792
238	145.6231	-105.8013
239	160.3812	-81.7183
240	171.1902	-55.6231
241	177.7839	-28.1582
242	210.0000	0.0000
243	207.4146	32.8512
244	199.7219	64.8936
245	187.1114	95.3380
246	169.8936	123.4349
247	148.4924	148.4924
248	123.4349	169.8936
249	95.3380	187.1114
250	64.8936	199.7219
251	32.8512	207.4146
252	0.0000	210.0000
253	-32.8512	207.4146
254	-64.8936	199.7219
255	-95.3380	187.1114
256	-123.4349	169.8936
257	-148.4924	148.4924
258	-169.8936	123.4349
259	-187.1114	95.3380
260	-199.7219	64.8936
261	-207.4146	32.8512
262	-210.0000	0.0000
263	-207.4146	-32.8512
264	-199.7219	-64.8936
265	-187.1114	-95.3380
266	-169.8936	-123.4349
267	-148.4924	-148.4924
268	-123.4349	-169.8936
269	-95.3380	-187.1114
270	-64.8936	-199.7219
271	-32.8512	-207.4146
272	-0.0000	-210.0000
273	32.8512	-207.4146
274	64.8936	-199.7219
275	95.3380	-187.1114
276	123.4349	-169.8936
277	148.4924	-148.4924
278	169.8936	-123.4349
279	187.1114	-95.3380
280	199.7219	-64.8936
281	207.4146	-32.8512
282	240.0000	0.0000
283	237.0452	37.5443
284	228.2536	74.1641
285	213.8416	108.9577
286	194.1641	141.0685
287	169.7056	169.7056
288	141.0685	194.1641
289	108.9577	213.8416
290	74.1641	228.2536
291	37.5443	237.0452
292	0.0000	240.0000
293	-37.5443	237.0452
294	-74.1641	228.2536
295	-108.9577	213.8416
296	-141.0685	194.1641
297	-169.7056	169.7056
298	-194.1641	141.0685
299	-213.8416	108.9577
300	-228.2536	74.1641
301	-237.0452	37.5443
302	-240.0000	0.0000
303	-237.0452	-37.5443
304	-228.2536	-74.1641
305	-213.8416	-108.9577
306	-194.1641	-141.0685
307	-169.7056	-169.7056
308	-141.0685	-194.1641
309	-108.9577	-213.8416
310	-74.1641	-228.2536
311	-37.5443	-237.0452
312	-0.0000	-240.0000
313	37.5443	-237.0452
314	74.1641	-228.2536
315	108.9577	-213.8416
316	141.0685	-194.1641
317	169.7056	-169.7056
318	194.1641	-141.0685
319	213.8416	-108.9577
320	228.2536	-74.1641
321	237.0452	-37.5443
322	270.0000	0.0000
323	266.6759	42.2373
324	256.7853	83.4346
325	240.5718	122.5774
326	218.4346	158.7020
327	190.9188	190.9188
328	158.7020	218.4346
329	122.5774	240.5718
330	83.4346	256.7853
331	42.2373	266.6759
332	0.0000	270.0000
333	-42.2373	266.6759
334	-83.4346	256.7853
335	-122.5774	240.5718
336	-158.7020	218.4346
337	-190.9188	190.9188
338	-218.4346	158.7020
339	-240.5718	122.5774
340	-256.7853	83.4346
341	-266.6759	42.2373
342	-270.0000	0.0000
343	-266.6759	-42.2373
344	-256.7853	-83.4346
345	-240.5718	-122.5774
346	-218.4346	-158.7020
347	-190.9188	-190.9188
348	-158.7020	-218.4346
349	-122.5774	-240.5718
350	-83.4346	-256.7853
351	-42.2373	-266.6759
352	-0.0000	-270.0000
353	42.2373	-266.6759
354	83.4346	-256.7853
355	122.5774	-240.5718
356	158.7020	-218.4346
357	190.9188	-190.9188
358	218.4346	-158.7020
359	240.5718	-122.5774
360	256.7853	-83.4346
361	266.6759	-42.2373
362	300.0000	0.0000
363	296.3065	46.9303
364	285.3170	92.7051
365	267.3020	136.1971
366	242.7051	176.3356
367	212.1320	212.1320
368	176.3356	242.7051
369	136.1971	267.3020
370	92.7051	285.3170
371	46.9303	296.3065
372	0.0000	300.0000
373	-46.9303	296.3065
374	-92.7051	285.3170
375	-136.1971	267.3020
376	-176.3356	242.7051
377	-212.1320	212.1320
378	-242.7051	176.3356
379	-267.3020	136.1971
380	-285.3170	92.7051
381	-296.3065	46.9303
382	-300.0000	0.0000
383	-296.3065	-46.9303
384	-285.3170	-92.7051
385	-267.3020	-136.1971
386	-242.7051	-176.3356
387	-212.1320	-212.1320
388	-176.3356	-242.7051
389	-136.1971	-267.3020
390	-92.7051	-285.3170
391	-46.9303	-296.3065
392	-0.0000	-300.0000
393	46.9303	-296.3065
394	92.7051	-285.3170
395	136.1971	-267.3020
396	176.3356	-242.7051
397	212.1320	-212.1320
398	242.7051	-176.3356
399	267.3020	-136.1971
400	285.3170	-92.7051
401	296.3065	-46.9303
402	330.0000	0.0000
403	325.9372	51.6234
404	313.8487	101.9756
405	294.0322	149.8169
406	266.9756	193.9691
407	233.3452	233.3452
408	193.9691	266.9756
409	149.8169	294.0322
410	101.9756	313.8487
411	51.6234	325.9372
412	0.0000	330.0000
413	-51.6234	325.9372
414	-101.9756	313.8487
415	-149.8169	294.0322
416	-193.9691	266.9756
417	-233.3452	233.3452
418	-266.9756	193.9691
419	-294.0322	149.8169
420	-313.8487	101.9756
421	-325.9372	51.6234
422	-330.0000	0.0000
423	-325.9372	-51.6234
424	-313.8487	-101.9756
425	-294.0322	-149.8169
426	-266.9756	-193.9691
427	-233.3452	-233.3452
428	-193.9691	-266.9756
429	-149.8169	-294.0322
430	-101.9756	-313.8487
431	-51.6234	-325.9372
432	-0.0000	-330.0000
433	51.6234	-325.9372
434	101.9756	-313.8487
435	149.8169	-294.0322
436	193.9691	-266.9756
437	233.3452	-233.3452
438	266.9756	-193.9691
439	294.0322	-149.8169
440	313.8487	-101.9756
441	325.9372	-51.6234
442	360.0000	0.0000
443	355.5678	56.3164
444	342.3803	111.2461
445	320.7623	163.4366
446	291.2461	211.6027
447	254.5584	254.5584
448	211.6027	291.2461
449	163.4366	320.7623
450	111.2461	342.3803
451	56.3164	355.5678
452	0.0000	360.0000
453	-56.3164	355.5678
454	-111.2461	342.3803
455	-163.4366	320.7623
456	-211.6027	291.2461
457	-254.5584	254.5584
458	-291.2461	211.6027
459	-320.7623	163.4366
460	-342.3803	111.2461
461	-355.5678	56.3164
462	-360.0000	0.0000
463	-355.5678	-56.3164
464	-342.3803	-111.2461
465	-320.7623	-163.4366
466	-291.2461	-211.6027
467	-254.5584	-254.5584
468	-211.6027	-291.2461
469	-163.4366	-320.7623
470	-111.2461	-342.3803
471	-56.3164	-355.5678
472	-0.0000	-360.0000
473	56.3164	-355.5678
474	111.2461	-342.3803
475	163.4366	-320.7623
476	211.6027	-291.2461
477	254.5584	-254.5584
478	291.2461	-211.6027
479	320.7623	-163.4366
480	342.3803	-111.2461
481	355.5678	-56.3164
482	390.0000	0.0000
483	385.1985	61.0094
484	370.9120	120.5166
485	347.4925	177.0563
486	315.5166	229.2362
487	275.7716	275.7716
488	229.2362	315.5166
489	177.0563	347.4925
490	120.5166	370.9120
491	61.0094	385.1985
492	0.0000	390.0000
493	-61.0094	385.1985
494	-120.5166	370.9120
495	-177.0563	347.4925
496	-229.2362	315.5166
497	-275.7716	275.7716
498	-315.5166	229.2362
499	-347.4925	177.0563
500	-370.9120	120.5166
501	-385.1985	61.0094
502	-390.0000	0.0000
503	-385.1985	-61.0094
504	-370.9120	-120.5166
505	-347.4925	-177.0563
506	-315.5166	-229.2362
507	-275.7716	-275.7716
508	-229.2362	-315.5166
509	-177.0563	-347.4925
510	-120.5166	-370.9120
511	-61.0094	-385.1985
512	-0.0000	-390.0000
513	61.0094	-385.1985
514	120.5166	-370.9120
515	177.0563	-347.4925
516	229.2362	-315.5166
517	275.7716	-275.7716
518	315.5166	-229.2362
519	347.4925	-177.0563
520	370.9120	-120.5166
521	385.1985	-61.0094
522	420.0000	0.0000
523	414.8291	65.7025
524	399.4437	129.7871
525	374.2227	190.6760
526	339.7871	246.8698
527	296.9848	296.9848
528	246.8698	339.7871
529	190.6760	374.2227
530	129.7871	399.4437
531	65.7025	414.8291
532	0.0000	420.0000
533	-65.7025	414.8291
534	-129.7871	399.4437
535	-190.6760	374.2227
536	-246.8698	339.7871
537	-296.9848	296.9848
538	-339.7871	246.8698
539	-374.2227	190.6760
540	-399.4437	129.7871
541	-414.8291	65.7025
542	-420.0000	0.0000
543	-414.8291	-65.7025
544	-399.4437	-129.7871
545	-374.2227	-190.6760
546	-339.7871	-246.8698
547	-296.9848	-296.9848
548	-246.8698	-339.7871
549	-190.6760	-374.2227
550	-129.7871	-399.4437
551	-65.7025	-414.8291
552	-0.0000	-420.0000
553	65.7025	-414.8291
554	129.7871	-399.4437
555	190.6760	-374.2227
556	246.8698	-339.7871
557	296.9848	-296.9848
558	339.7871	-246.8698
559	374.2227	-190.6760
560	399.4437	-129.7871
561	414.8291	-65.7025
DEMAND_SECTION
1	0
2	10
3	30
4	30
5	10
6	10
7	30
8	30
9	10
10	10
11	30
12	30
13	10
14	10
15	30
16	30
17	10
18	10
19	30
20	30
21	10
22	10
23	30
24	30
25	10
26	10
27	30
28	30
29	10
30	10
31	30
32	30
33	10
34	10
35	30
36	30
37	10
38	10
39	30
40	30
41	10
42	10
43	30
44	30
45	10
46	10
47	30
48	30
49	10
50	10
51	30
52	30
53	10
54	10
55	30
56	30
57	10
58	10
59	30
60	30
61	10
62	10
63	30
64	30
65	10
66	10
67	30
68	30
69	10
70	10
71	30
72	30
73	10
74	10
75	30
76	30
77	10
78	10
79	30
80	30
81	10
82	10
83	30
84	30
85	10
86	10
87	30
88	30
89	10
90	10
91	30
92	30
93	10
94	10
95	30
96	30
97	10
98	10
99	30
100	30
101	10
102	10
103	30
104	30
105	10
106	10
107	30
108	30
109	10
110	10
111	30
112	30
113	10
114	10
115	30
116	30
117	10
118	10
119	30
120	30
121	10
122	10
123	30
124	30
125	10
126	10
127	30
128	30
129	10
130	10
131	30
132	30
133	10
134	10
135	30
136	30
137	10
138	10
139	30
140	30
141	10
142	10
143	30
144	30
145	10
146	10
147	30
148	30
149	10
150	10
151	30
152	30
153	10
154	10
155	30
156	30
157	10
158	10
159	30
160	30
161	10
162	10
163	30
164	30
165	10
166	10
167	30
168	30
169	10
170	10
171	30
172	30
173	10
174	10
175	30
176	30
177	10
178	10
179	30
180	30
181	10
182	10
183	30
184	30
185	10
186	10
187	30
188	30
189	10
190	10
191	30
192	30
193	10
194	10
195	30
196	30
197	10
198	10
199	30
200	30
201	10
202	10
203	30
204	30
205	10
206	10
207	30
208	30
209	10
210	10
211	30
212	30
213	10
214	10
215	30
216	30
217	10
218	10
219	30
220	30
221	10
222	10
223	30
224	30
225	10
226	10
227	30
228	30
229	10
230	10
231	30
232	30
233	10
234	10
235	30
236	30
237	10
238	10
239	30
240	30
241	10
242	10
243	30
244	30
245	10
246	10
247	30
248	30
249	10
250	10
251	30
252	30
253	10
254	10
255	30
256	30
257	10
258	10
259	30
260	30
261	10
262	10
263	30
264	30
265	10
266	10
267	30
268	30
269	10
270	10
271	30
272	30
273	10
274	10
275	30
276	30
277	10
278	10
279	30
280	30
281	10
282	10
283	30
284	30
285	10
286	10
287	30
288	30
289	10
290	10
291	30
292	30
293	10
294	10
295	30
296	30
297	10
298	10
299	30
300	30
301	10
302	10
303	30
304	30
305	10
306	10
307	30
308	30
309	10
310	10
311	30
312	30
313	10
314	10
315	30
316	30
317	10
318	10
319	30
320	30
321	10
322	10
323	30
324	30
325	10
326	10
327	30
328	30
329	10
330	10
331	30
332	30
333	10
334	10
335	30
336	30
337	10
338	10
339	30
340	30
341	10
342	10
343	30
344	30
345	10
346	10
347	30
348	30
349	10
350	10
351	30
352	30
353	10
354	10
355	30
356	30
357	10
358	10
359	30
360	30
361	10
362	10
363	30
364	30
365	10
366	10
367	30
368	30
369	10
370	10
371	30
372	30
373	10
374	10
375	30
376	30
377	10
378	10
379	30
380	30
381	10
382	10
383	30
384	30
385	10
386	10
387	30
388	30
389	10
390	10
391	30
392	30
393	10
394	10
395	30
396	30
397	10
398	10
399	30
400	30
401	10
402	10
403	30
404	30
405	10
406	10
407	30
408	30
409	10
410	10
411	30
412	30
413	10
414	10
415	30
416	30
417	10
418	10
419	30
420	30
421	10
422	10
423	30
424	30
425	10
426	10
427	30
428	30
429	10
430	10
431	30
432	30
433	10
434	10
435	30
436	30
437	10
438	10
439	30
440	30
441	10
442	10
443	30
444	30
445	10
446	10
447	30
448	30
449	10
450	10
451	30
452	30
453	10
454	10
455	30
456	30
457	10
458	10
459	30
460	30
461	10
462	10
463	30
464	30
465	10
466	10
467	30
468	30
469	10
470	10
471	30
472	30
473	10
474	10
475	30
476	30
477	10
478	10
479	30
480	30
481	10
482	10
483	30
484	30
485	10
486	10
487	30
488	30
489	10
490	10
491	30
492	30
493	10
494	10
495	30
496	30
497	10
498	10
499	30
500	30
501	10
502	10
503	30
504	30
505	10
506	10
507	30
508	30
509	10
510	10
511	30
512	30
513	10
514	10
515	30
516	30
517	10
518	10
519	30
520	30
521	10
522	10
523	30
524	30
525	10
526	10
527	30
528	30
529	10
530	10
531	30
532	30
533	10
534	10
535	30
536	30
537	10
538	10
539	30
540	30
541	10
542	10
543	30
544	30
545	10
546	10
547	30
548	30
549	10
550	10
551	30
552	30
553	10
554	10
555	30
556	30
557	10
558	10
559	30
560	30
561	10
DEPOT_SECTION
 1
 -1
EOF
